; benchmark generated from python API
(set-info :status unknown)
(declare-fun strlen_85_64 () (_ BitVec 64))
(declare-fun args_1_8 () (_ BitVec 8))
(declare-fun strlen_83_64 () (_ BitVec 64))
(declare-fun strncmp_ret_84_32 () (_ BitVec 32))
(declare-fun strncmp_ret_86_32 () (_ BitVec 32))
(declare-fun filesize_file_0_/proc/self/loginuid_88_64 () (_ BitVec 64))
(declare-fun syscall_stub_ioctl_94_32 () (_ BitVec 32))
(declare-fun syscall_stub_newfstatat_119_64 () (_ BitVec 64))
(declare-fun syscall_stub_readlink_158_64 () (_ BitVec 64))
(declare-fun strlen_842_64 () (_ BitVec 64))
(declare-fun mem_7fffffffffef420_168_64 () (_ BitVec 64))
(declare-fun syscall_stub_newfstatat_187_64 () (_ BitVec 64))
(declare-fun mem_7fffffffffef038_272_64 () (_ BitVec 64))
(declare-fun mem_7fffffffffeefa8_273_64 () (_ BitVec 64))
(declare-fun mem_7fffffffffeefa0_293_64 () (_ BitVec 64))
(declare-fun mem_7fffffffffef030_294_64 () (_ BitVec 64))
(declare-fun mem_7fffffffffef048_341_32 () (_ BitVec 32))
(declare-fun mem_7fffffffffeefc8_390_64 () (_ BitVec 64))
(declare-fun mem_7fffffffffef058_391_64 () (_ BitVec 64))
(declare-fun access_2116_32 () (_ BitVec 32))
(declare-fun access_3089_32 () (_ BitVec 32))
(declare-fun mem_2c_5073_264 () (_ BitVec 264))
(declare-fun strlen_5074_64 () (_ BitVec 64))
(declare-fun strlen_8047_64 () (_ BitVec 64))
(declare-fun strlen_9892_64 () (_ BitVec 64))
(declare-fun mem_7fffffffffef740_6019_248 () (_ BitVec 248))
(assert
 (let ((?x751 (bvadd (_ bv576460752303357826 64) strlen_85_64)))
 (let (($x69 (= (_ bv0 8) args_1_8)))
 (let ((?x46 (ite $x69 (_ bv576460752303357826 64) (_ bv576460752303357827 64))))
 (= ?x46 ?x751)))))
(assert
 (let ((?x101 (bvadd (_ bv576460752303357826 64) strlen_83_64)))
 (let (($x69 (= (_ bv0 8) args_1_8)))
 (let ((?x46 (ite $x69 (_ bv576460752303357826 64) (_ bv576460752303357827 64))))
 (= ?x46 ?x101)))))
(assert
 (let (($x104 (bvule (_ bv2 64) strlen_83_64)))
 (let (($x48 (= (_ bv2 64) strlen_83_64)))
 (let (($x122 (or $x48 $x104)))
 (let (($x123 (not $x122)))
 (let (($x57 (= (_ bv45 8) args_1_8)))
 (let (($x121 (not $x57)))
 (or $x121 $x123))))))))
(assert
 (= (_ bv1 32) strncmp_ret_84_32))
(assert
 (= (_ bv1 32) strncmp_ret_86_32))
(assert
 true)
(assert
 (let ((?x1236 ((_ extract 3 0) filesize_file_0_/proc/self/loginuid_88_64)))
 (let (($x1210 (bvsge (_ bv0 64) filesize_file_0_/proc/self/loginuid_88_64)))
 (let ((?x99 (ite $x1210 (_ bv0 4) ?x1236)))
 (let (($x1110 (bvule ?x99 (_ bv12 4))))
 (let (($x119703 (not $x1110)))
 (let ((?x1214 ((_ extract 63 63) filesize_file_0_/proc/self/loginuid_88_64)))
 (let (($x116245 (= (_ bv1 1) ?x1214)))
 (let (($x119835 (not $x116245)))
 (let ((?x1229 ((_ extract 63 4) filesize_file_0_/proc/self/loginuid_88_64)))
 (let (($x523 (= (_ bv0 60) ?x1229)))
 (let (($x516 (or $x1210 $x523)))
 (let (($x119942 (not $x516)))
 (let (($x119586 (or $x119942 $x119835 $x1210 $x119703)))
 (let (($x116912 (not $x119586)))
 (let (($x116860 (= (_ bv0 64) filesize_file_0_/proc/self/loginuid_88_64)))
 (let (($x117248 (or $x116860 $x1210)))
 (let (($x119482 (not $x117248)))
 (let (($x47155 (or $x119942 $x119703 $x119482)))
 (let (($x118344 (not $x47155)))
 (or $x118344 $x116912)))))))))))))))))))))
(assert
 (let (($x1210 (bvsge (_ bv0 64) filesize_file_0_/proc/self/loginuid_88_64)))
 (let ((?x1217 (ite $x1210 (_ bv0 64) filesize_file_0_/proc/self/loginuid_88_64)))
 (let ((?x1236 ((_ extract 3 0) filesize_file_0_/proc/self/loginuid_88_64)))
 (let ((?x99 (ite $x1210 (_ bv0 4) ?x1236)))
 (let (($x1110 (bvule ?x99 (_ bv12 4))))
 (let ((?x1229 ((_ extract 63 4) filesize_file_0_/proc/self/loginuid_88_64)))
 (let (($x523 (= (_ bv0 60) ?x1229)))
 (let (($x516 (or $x1210 $x523)))
 (let (($x975 (and $x516 $x1110)))
 (let ((?x1169 (ite $x975 ?x1217 (_ bv12 64))))
 (bvule ?x1169 (_ bv18446744073709547520 64)))))))))))))
(assert
 (let ((?x48102 ((_ extract 31 31) syscall_stub_ioctl_94_32)))
 (= (_ bv0 1) ?x48102)))
(assert
 (let (($x3051 (= (_ bv0 32) syscall_stub_ioctl_94_32)))
 (not $x3051)))
(assert
 (let ((?x52872 ((_ extract 31 0) syscall_stub_newfstatat_119_64)))
 (bvule ?x52872 (_ bv4294963200 32))))
(assert
 (= (_ bv13 64) syscall_stub_readlink_158_64))
(assert
 (let ((?x441255 (bvadd (_ bv576460752303354917 64) strlen_842_64)))
 (let ((?x119659 ((_ extract 63 56) mem_7fffffffffef420_168_64)))
 (let (($x441241 (= (_ bv0 8) ?x119659)))
 (let ((?x114108 (ite $x441241 (_ bv576460752303354919 64) (_ bv576460752303354920 64))))
 (let ((?x113788 ((_ extract 55 48) mem_7fffffffffef420_168_64)))
 (let (($x441239 (= (_ bv0 8) ?x113788)))
 (let ((?x40247 (ite $x441239 (_ bv576460752303354918 64) ?x114108)))
 (let ((?x68316 ((_ extract 47 40) mem_7fffffffffef420_168_64)))
 (let (($x441237 (= (_ bv0 8) ?x68316)))
 (let ((?x3236 (ite $x441237 (_ bv576460752303354917 64) ?x40247)))
 (= ?x3236 ?x441255))))))))))))
(assert
 (let ((?x46334 ((_ extract 7 0) mem_7fffffffffef420_168_64)))
 (= (_ bv47 8) ?x46334)))
(assert
 (let ((?x441444 (bvadd (_ bv1 64) strlen_842_64)))
 (let ((?x442010 ((_ extract 63 3) ?x441444)))
 (= (_ bv0 61) ?x442010))))
(assert
 (let ((?x441926 ((_ extract 2 0) strlen_842_64)))
 (let ((?x441872 (bvadd (_ bv1 3) ?x441926)))
 (bvule ?x441872 (_ bv4 3)))))
(assert
 (let ((?x441444 (bvadd (_ bv1 64) strlen_842_64)))
 (let (($x441412 (bvule (_ bv31 64) strlen_842_64)))
 (let (($x441420 (bvule strlen_842_64 (_ bv18446744073709551614 64))))
 (let (($x441918 (and $x441420 $x441412)))
 (let ((?x442099 (ite $x441918 (_ bv32 64) ?x441444)))
 (bvule (_ bv1 64) ?x442099)))))))
(assert
 (let (($x441412 (bvule (_ bv31 64) strlen_842_64)))
 (let (($x441584 (not $x441412)))
 (let (($x441420 (bvule strlen_842_64 (_ bv18446744073709551614 64))))
 (let (($x441580 (not $x441420)))
 (or $x441580 $x441584))))))
(assert
 (let ((?x118302 ((_ extract 31 0) syscall_stub_newfstatat_187_64)))
 (bvule ?x118302 (_ bv4294963200 32))))
(assert
 (= mem_7fffffffffeefa8_273_64 mem_7fffffffffef038_272_64))
(assert
 (= mem_7fffffffffef030_294_64 mem_7fffffffffeefa0_293_64))
(assert
 (let ((?x276820 ((_ extract 15 12) mem_7fffffffffef048_341_32)))
 (= (_ bv2 4) ?x276820)))
(assert
 (= mem_7fffffffffef058_391_64 mem_7fffffffffeefc8_390_64))
(assert
 (= (_ bv0 32) access_2116_32))
(assert
 (= (_ bv4294967295 32) access_3089_32))
(assert
 (let ((?x1267355 ((_ extract 23 16) mem_2c_5073_264)))
 (let (($x1267356 (= (_ bv0 8) ?x1267355)))
 (not $x1267356))))
(assert
 (let ((?x1231190 ((_ extract 15 8) mem_2c_5073_264)))
 (= (_ bv0 8) ?x1231190)))
(assert
 (let ((?x1265578 ((_ extract 31 24) mem_2c_5073_264)))
 (let (($x1265576 (= (_ bv0 8) ?x1265578)))
 (not $x1265576))))
(assert
 (let ((?x1265577 ((_ extract 39 32) mem_2c_5073_264)))
 (let (($x1267127 (= (_ bv0 8) ?x1265577)))
 (not $x1267127))))
(assert
 (let ((?x1250042 ((_ extract 47 40) mem_2c_5073_264)))
 (let (($x1250263 (= (_ bv0 8) ?x1250042)))
 (not $x1250263))))
(assert
 (let ((?x1267183 ((_ extract 55 48) mem_2c_5073_264)))
 (let (($x1267170 (= (_ bv0 8) ?x1267183)))
 (not $x1267170))))
(assert
 (let ((?x1267474 ((_ extract 63 56) mem_2c_5073_264)))
 (let (($x900048 (= (_ bv0 8) ?x1267474)))
 (not $x900048))))
(assert
 (let ((?x1267433 ((_ extract 71 64) mem_2c_5073_264)))
 (let (($x1267210 (= (_ bv0 8) ?x1267433)))
 (not $x1267210))))
(assert
 (let ((?x1267425 ((_ extract 79 72) mem_2c_5073_264)))
 (let (($x1267405 (= (_ bv0 8) ?x1267425)))
 (not $x1267405))))
(assert
 (let ((?x1267422 ((_ extract 87 80) mem_2c_5073_264)))
 (let (($x1267420 (= (_ bv0 8) ?x1267422)))
 (not $x1267420))))
(assert
 (let ((?x1267419 ((_ extract 95 88) mem_2c_5073_264)))
 (let (($x1267418 (= (_ bv0 8) ?x1267419)))
 (not $x1267418))))
(assert
 (let ((?x1267417 ((_ extract 103 96) mem_2c_5073_264)))
 (let (($x1267416 (= (_ bv0 8) ?x1267417)))
 (not $x1267416))))
(assert
 (let ((?x1267415 ((_ extract 111 104) mem_2c_5073_264)))
 (let (($x1265239 (= (_ bv0 8) ?x1267415)))
 (not $x1265239))))
(assert
 (let ((?x1250060 ((_ extract 119 112) mem_2c_5073_264)))
 (let (($x480897 (= (_ bv0 8) ?x1250060)))
 (not $x480897))))
(assert
 (let ((?x1249915 ((_ extract 127 120) mem_2c_5073_264)))
 (let (($x1267124 (= (_ bv0 8) ?x1249915)))
 (not $x1267124))))
(assert
 (let ((?x1267176 ((_ extract 135 128) mem_2c_5073_264)))
 (let (($x1231090 (= (_ bv0 8) ?x1267176)))
 (not $x1231090))))
(assert
 (let ((?x1267256 ((_ extract 143 136) mem_2c_5073_264)))
 (let (($x1267199 (= (_ bv0 8) ?x1267256)))
 (not $x1267199))))
(assert
 (let ((?x1267157 ((_ extract 151 144) mem_2c_5073_264)))
 (let (($x1267107 (= (_ bv0 8) ?x1267157)))
 (not $x1267107))))
(assert
 (let ((?x1249946 ((_ extract 159 152) mem_2c_5073_264)))
 (let (($x1265573 (= (_ bv0 8) ?x1249946)))
 (not $x1265573))))
(assert
 (let ((?x1250048 ((_ extract 167 160) mem_2c_5073_264)))
 (let (($x1231002 (= (_ bv0 8) ?x1250048)))
 (not $x1231002))))
(assert
 (let ((?x1230572 ((_ extract 175 168) mem_2c_5073_264)))
 (let (($x1250085 (= (_ bv0 8) ?x1230572)))
 (not $x1250085))))
(assert
 (let ((?x1267318 ((_ extract 183 176) mem_2c_5073_264)))
 (let (($x1267232 (= (_ bv0 8) ?x1267318)))
 (not $x1267232))))
(assert
 (let ((?x1267315 ((_ extract 191 184) mem_2c_5073_264)))
 (let (($x1267152 (= (_ bv0 8) ?x1267315)))
 (not $x1267152))))
(assert
 (let ((?x1265604 ((_ extract 199 192) mem_2c_5073_264)))
 (let (($x1226027 (= (_ bv0 8) ?x1265604)))
 (not $x1226027))))
(assert
 (let ((?x1250152 ((_ extract 207 200) mem_2c_5073_264)))
 (let (($x1267384 (= (_ bv0 8) ?x1250152)))
 (not $x1267384))))
(assert
 (let ((?x1267382 ((_ extract 215 208) mem_2c_5073_264)))
 (let (($x1267383 (= (_ bv0 8) ?x1267382)))
 (not $x1267383))))
(assert
 (let ((?x1267375 ((_ extract 223 216) mem_2c_5073_264)))
 (let (($x1249904 (= (_ bv0 8) ?x1267375)))
 (not $x1249904))))
(assert
 (let ((?x897595 ((_ extract 231 224) mem_2c_5073_264)))
 (let (($x1267369 (= (_ bv0 8) ?x897595)))
 (not $x1267369))))
(assert
 (let ((?x1265610 ((_ extract 239 232) mem_2c_5073_264)))
 (let (($x1067573 (= (_ bv0 8) ?x1265610)))
 (not $x1067573))))
(assert
 (let ((?x1250005 ((_ extract 247 240) mem_2c_5073_264)))
 (let (($x1267298 (= (_ bv0 8) ?x1250005)))
 (not $x1267298))))
(assert
 (let ((?x1267352 ((_ extract 255 248) mem_2c_5073_264)))
 (let (($x1250251 (= (_ bv0 8) ?x1267352)))
 (not $x1250251))))
(assert
 (let ((?x1065457 ((_ extract 263 256) mem_2c_5073_264)))
 (let (($x1250191 (= (_ bv0 8) ?x1065457)))
 (not $x1250191))))
(assert
 (= (_ bv31 64) strlen_5074_64))
(assert
 (= (_ bv31 64) strlen_8047_64))
(assert
 (let ((?x1342657 ((_ extract 7 0) mem_7fffffffffef740_6019_248)))
 (let ((?x1342665 ((_ extract 15 0) mem_7fffffffffef740_6019_248)))
 (let ((?x1342671 ((_ extract 23 0) mem_7fffffffffef740_6019_248)))
 (let ((?x1342683 ((_ extract 31 0) mem_7fffffffffef740_6019_248)))
 (let ((?x1342687 ((_ extract 39 0) mem_7fffffffffef740_6019_248)))
 (let ((?x1342691 ((_ extract 47 0) mem_7fffffffffef740_6019_248)))
 (let ((?x1342700 ((_ extract 55 0) mem_7fffffffffef740_6019_248)))
 (let ((?x1342313 ((_ extract 63 0) mem_7fffffffffef740_6019_248)))
 (let ((?x1341761 ((_ extract 71 0) mem_7fffffffffef740_6019_248)))
 (let ((?x1342509 ((_ extract 79 0) mem_7fffffffffef740_6019_248)))
 (let ((?x1342715 ((_ extract 87 0) mem_7fffffffffef740_6019_248)))
 (let ((?x1342696 ((_ extract 95 0) mem_7fffffffffef740_6019_248)))
 (let ((?x1342723 ((_ extract 103 0) mem_7fffffffffef740_6019_248)))
 (let ((?x1330448 ((_ extract 111 0) mem_7fffffffffef740_6019_248)))
 (let ((?x1292435 ((_ extract 119 0) mem_7fffffffffef740_6019_248)))
 (let ((?x1342659 ((_ extract 127 0) mem_7fffffffffef740_6019_248)))
 (let ((?x1342651 ((_ extract 135 0) mem_7fffffffffef740_6019_248)))
 (let ((?x1342582 ((_ extract 143 0) mem_7fffffffffef740_6019_248)))
 (let ((?x1342415 ((_ extract 151 0) mem_7fffffffffef740_6019_248)))
 (let ((?x1342642 ((_ extract 159 0) mem_7fffffffffef740_6019_248)))
 (let ((?x1342636 ((_ extract 167 0) mem_7fffffffffef740_6019_248)))
 (let ((?x1341752 ((_ extract 175 0) mem_7fffffffffef740_6019_248)))
 (let ((?x1342598 ((_ extract 183 0) mem_7fffffffffef740_6019_248)))
 (let ((?x1342616 ((_ extract 191 0) mem_7fffffffffef740_6019_248)))
 (let ((?x1293362 ((_ extract 199 0) mem_7fffffffffef740_6019_248)))
 (let ((?x1292117 ((_ extract 207 0) mem_7fffffffffef740_6019_248)))
 (let ((?x526364 ((_ extract 215 0) mem_7fffffffffef740_6019_248)))
 (let ((?x1342501 ((_ extract 223 0) mem_7fffffffffef740_6019_248)))
 (let ((?x1293226 ((_ extract 231 0) mem_7fffffffffef740_6019_248)))
 (let ((?x1342612 ((_ extract 239 0) mem_7fffffffffef740_6019_248)))
 (let ((?x1288258 ((_ extract 263 16) mem_2c_5073_264)))
 (let (($x1330635 (= (_ bv1 64) strlen_5074_64)))
 (let ((?x515870 (ite $x1330635 ?x1288258 mem_7fffffffffef740_6019_248)))
 (let ((?x739240 ((_ extract 247 240) ?x515870)))
 (let ((?x1342994 (concat ?x739240 ?x1342612)))
 (let (($x1330676 (= (_ bv2 64) strlen_5074_64)))
 (let ((?x1342511 (ite $x1330676 ?x1288258 ?x1342994)))
 (let ((?x525266 ((_ extract 247 232) ?x1342511)))
 (let ((?x476295 (concat ?x525266 ?x1293226)))
 (let (($x1330664 (= (_ bv3 64) strlen_5074_64)))
 (let ((?x1342599 (ite $x1330664 ?x1288258 ?x476295)))
 (let ((?x740152 ((_ extract 247 224) ?x1342599)))
 (let ((?x1342254 (concat ?x740152 ?x1342501)))
 (let (($x1286922 (= (_ bv4 64) strlen_5074_64)))
 (let ((?x525300 (ite $x1286922 ?x1288258 ?x1342254)))
 (let ((?x1342153 ((_ extract 247 216) ?x525300)))
 (let ((?x1342620 (concat ?x1342153 ?x526364)))
 (let (($x1292315 (= (_ bv5 64) strlen_5074_64)))
 (let ((?x1342489 (ite $x1292315 ?x1288258 ?x1342620)))
 (let ((?x1342431 ((_ extract 247 208) ?x1342489)))
 (let ((?x645484 (concat ?x1342431 ?x1292117)))
 (let (($x1288354 (= (_ bv6 64) strlen_5074_64)))
 (let ((?x513880 (ite $x1288354 ?x1288258 ?x645484)))
 (let ((?x525278 ((_ extract 247 200) ?x513880)))
 (let ((?x1330197 (concat ?x525278 ?x1293362)))
 (let (($x1330219 (= (_ bv7 64) strlen_5074_64)))
 (let ((?x1342611 (ite $x1330219 ?x1288258 ?x1330197)))
 (let ((?x1342987 ((_ extract 247 192) ?x1342611)))
 (let ((?x1292415 (concat ?x1342987 ?x1342616)))
 (let (($x1284920 (= (_ bv8 64) strlen_5074_64)))
 (let ((?x1342442 (ite $x1284920 ?x1288258 ?x1292415)))
 (let ((?x1342686 ((_ extract 247 184) ?x1342442)))
 (let ((?x1342216 (concat ?x1342686 ?x1342598)))
 (let (($x1288939 (= (_ bv9 64) strlen_5074_64)))
 (let ((?x1342596 (ite $x1288939 ?x1288258 ?x1342216)))
 (let ((?x1342682 ((_ extract 247 176) ?x1342596)))
 (let ((?x1342577 (concat ?x1342682 ?x1341752)))
 (let (($x501826 (= (_ bv10 64) strlen_5074_64)))
 (let ((?x1342650 (ite $x501826 ?x1288258 ?x1342577)))
 (let ((?x562822 ((_ extract 247 168) ?x1342650)))
 (let ((?x1342653 (concat ?x562822 ?x1342636)))
 (let (($x1330662 (= (_ bv11 64) strlen_5074_64)))
 (let ((?x1342678 (ite $x1330662 ?x1288258 ?x1342653)))
 (let ((?x1342066 ((_ extract 247 160) ?x1342678)))
 (let ((?x1342670 (concat ?x1342066 ?x1342642)))
 (let (($x561432 (= (_ bv12 64) strlen_5074_64)))
 (let ((?x1342633 (ite $x561432 ?x1288258 ?x1342670)))
 (let ((?x1342551 ((_ extract 247 152) ?x1342633)))
 (let ((?x1342600 (concat ?x1342551 ?x1342415)))
 (let (($x1288605 (= (_ bv13 64) strlen_5074_64)))
 (let ((?x1342680 (ite $x1288605 ?x1288258 ?x1342600)))
 (let ((?x1342640 ((_ extract 247 144) ?x1342680)))
 (let ((?x1342607 (concat ?x1342640 ?x1342582)))
 (let (($x1330735 (= (_ bv14 64) strlen_5074_64)))
 (let ((?x1342668 (ite $x1330735 ?x1288258 ?x1342607)))
 (let ((?x1342684 ((_ extract 247 136) ?x1342668)))
 (let ((?x1342641 (concat ?x1342684 ?x1342651)))
 (let (($x1330665 (= (_ bv15 64) strlen_5074_64)))
 (let ((?x1342676 (ite $x1330665 ?x1288258 ?x1342641)))
 (let ((?x1293524 ((_ extract 247 128) ?x1342676)))
 (let ((?x1342536 (concat ?x1293524 ?x1342659)))
 (let (($x571332 (= (_ bv16 64) strlen_5074_64)))
 (let ((?x1342647 (ite $x571332 ?x1288258 ?x1342536)))
 (let ((?x1342628 ((_ extract 247 120) ?x1342647)))
 (let ((?x1342672 (concat ?x1342628 ?x1292435)))
 (let (($x1330756 (= (_ bv17 64) strlen_5074_64)))
 (let ((?x1342615 (ite $x1330756 ?x1288258 ?x1342672)))
 (let ((?x1342662 ((_ extract 247 112) ?x1342615)))
 (let ((?x1342645 (concat ?x1342662 ?x1330448)))
 (let (($x1330728 (= (_ bv18 64) strlen_5074_64)))
 (let ((?x1342378 (ite $x1330728 ?x1288258 ?x1342645)))
 (let ((?x1342724 ((_ extract 247 104) ?x1342378)))
 (let ((?x1342720 (concat ?x1342724 ?x1342723)))
 (let (($x1330748 (= (_ bv19 64) strlen_5074_64)))
 (let ((?x1342719 (ite $x1330748 ?x1288258 ?x1342720)))
 (let ((?x1342707 ((_ extract 247 96) ?x1342719)))
 (let ((?x1342648 (concat ?x1342707 ?x1342696)))
 (let (($x512590 (= (_ bv20 64) strlen_5074_64)))
 (let ((?x1342116 (ite $x512590 ?x1288258 ?x1342648)))
 (let ((?x1342716 ((_ extract 247 88) ?x1342116)))
 (let ((?x1342712 (concat ?x1342716 ?x1342715)))
 (let (($x1284960 (= (_ bv21 64) strlen_5074_64)))
 (let ((?x1267486 (ite $x1284960 ?x1288258 ?x1342712)))
 (let ((?x1341724 ((_ extract 247 80) ?x1267486)))
 (let ((?x1342706 (concat ?x1341724 ?x1342509)))
 (let (($x571263 (= (_ bv22 64) strlen_5074_64)))
 (let ((?x1342704 (ite $x571263 ?x1288258 ?x1342706)))
 (let ((?x1341764 ((_ extract 247 72) ?x1342704)))
 (let ((?x1342693 (concat ?x1341764 ?x1341761)))
 (let (($x1288949 (= (_ bv23 64) strlen_5074_64)))
 (let ((?x1342627 (ite $x1288949 ?x1288258 ?x1342693)))
 (let ((?x1342625 ((_ extract 247 64) ?x1342627)))
 (let ((?x1342697 (concat ?x1342625 ?x1342313)))
 (let (($x561221 (= (_ bv24 64) strlen_5074_64)))
 (let ((?x1342699 (ite $x561221 ?x1288258 ?x1342697)))
 (let ((?x1342701 ((_ extract 247 56) ?x1342699)))
 (let ((?x1330281 (concat ?x1342701 ?x1342700)))
 (let (($x1287885 (= (_ bv25 64) strlen_5074_64)))
 (let ((?x1342695 (ite $x1287885 ?x1288258 ?x1330281)))
 (let ((?x1342692 ((_ extract 247 48) ?x1342695)))
 (let ((?x1330342 (concat ?x1342692 ?x1342691)))
 (let (($x512646 (= (_ bv26 64) strlen_5074_64)))
 (let ((?x1308293 (ite $x512646 ?x1288258 ?x1330342)))
 (let ((?x1342688 ((_ extract 247 40) ?x1308293)))
 (let ((?x1341532 (concat ?x1342688 ?x1342687)))
 (let (($x1288394 (= (_ bv27 64) strlen_5074_64)))
 (let ((?x1342540 (ite $x1288394 ?x1288258 ?x1341532)))
 (let ((?x1342685 ((_ extract 247 32) ?x1342540)))
 (let ((?x1342679 (concat ?x1342685 ?x1342683)))
 (let (($x497305 (= (_ bv28 64) strlen_5074_64)))
 (let ((?x1342677 (ite $x497305 ?x1288258 ?x1342679)))
 (let ((?x1342673 ((_ extract 247 24) ?x1342677)))
 (let ((?x1342588 (concat ?x1342673 ?x1342671)))
 (let (($x571358 (= (_ bv29 64) strlen_5074_64)))
 (let ((?x1342585 (ite $x571358 ?x1288258 ?x1342588)))
 (let ((?x1342667 ((_ extract 247 16) ?x1342585)))
 (let ((?x1341893 (concat ?x1342667 ?x1342665)))
 (let (($x509074 (= (_ bv30 64) strlen_5074_64)))
 (let ((?x1342606 (ite $x509074 ?x1288258 ?x1341893)))
 (let ((?x1342658 ((_ extract 247 8) ?x1342606)))
 (let ((?x1341773 (concat ?x1342658 ?x1342657)))
 (let (($x512137 (= (_ bv31 64) strlen_5074_64)))
 (let ((?x1292321 (ite $x512137 ?x1288258 ?x1341773)))
 (let ((?x1558667 ((_ extract 7 0) ?x1292321)))
 (let (($x1558654 (= (_ bv0 8) ?x1558667)))
 (let ((?x1558596 (ite $x1558654 (_ bv576460752303355742 64) (_ bv576460752303355743 64))))
 (let ((?x1558126 ((_ extract 15 8) ?x1292321)))
 (let (($x1558653 (= (_ bv0 8) ?x1558126)))
 (let ((?x1558167 (ite $x1558653 (_ bv576460752303355741 64) ?x1558596)))
 (let ((?x1558222 ((_ extract 23 16) ?x1292321)))
 (let (($x1558614 (= (_ bv0 8) ?x1558222)))
 (let ((?x1558451 (ite $x1558614 (_ bv576460752303355740 64) ?x1558167)))
 (let ((?x1558427 ((_ extract 31 24) ?x1292321)))
 (let (($x1558390 (= (_ bv0 8) ?x1558427)))
 (let ((?x1558588 (ite $x1558390 (_ bv576460752303355739 64) ?x1558451)))
 (let ((?x1558463 ((_ extract 39 32) ?x1292321)))
 (let (($x1558389 (= (_ bv0 8) ?x1558463)))
 (let ((?x1558600 (ite $x1558389 (_ bv576460752303355738 64) ?x1558588)))
 (let ((?x1558439 ((_ extract 47 40) ?x1292321)))
 (let (($x1558355 (= (_ bv0 8) ?x1558439)))
 (let ((?x1558116 (ite $x1558355 (_ bv576460752303355737 64) ?x1558600)))
 (let ((?x1558460 ((_ extract 55 48) ?x1292321)))
 (let (($x1342726 (= (_ bv0 8) ?x1558460)))
 (let ((?x1558557 (ite $x1342726 (_ bv576460752303355736 64) ?x1558116)))
 (let ((?x1558553 ((_ extract 63 56) ?x1292321)))
 (let (($x1342725 (= (_ bv0 8) ?x1558553)))
 (let ((?x1558331 (ite $x1342725 (_ bv576460752303355735 64) ?x1558557)))
 (let ((?x1558267 ((_ extract 71 64) ?x1292321)))
 (let (($x1342646 (= (_ bv0 8) ?x1558267)))
 (let ((?x1558499 (ite $x1342646 (_ bv576460752303355734 64) ?x1558331)))
 (let ((?x1558229 ((_ extract 79 72) ?x1292321)))
 (let (($x1342644 (= (_ bv0 8) ?x1558229)))
 (let ((?x1558630 (ite $x1342644 (_ bv576460752303355733 64) ?x1558499)))
 (let ((?x1558493 ((_ extract 87 80) ?x1292321)))
 (let (($x1342643 (= (_ bv0 8) ?x1558493)))
 (let ((?x1558188 (ite $x1342643 (_ bv576460752303355732 64) ?x1558630)))
 (let ((?x1558112 ((_ extract 95 88) ?x1292321)))
 (let (($x1342637 (= (_ bv0 8) ?x1558112)))
 (let ((?x1558615 (ite $x1342637 (_ bv576460752303355731 64) ?x1558188)))
 (let ((?x1558211 ((_ extract 103 96) ?x1292321)))
 (let (($x1342635 (= (_ bv0 8) ?x1558211)))
 (let ((?x1558433 (ite $x1342635 (_ bv576460752303355730 64) ?x1558615)))
 (let ((?x1558541 ((_ extract 111 104) ?x1292321)))
 (let (($x1342634 (= (_ bv0 8) ?x1558541)))
 (let ((?x1558647 (ite $x1342634 (_ bv576460752303355729 64) ?x1558433)))
 (let ((?x1558576 ((_ extract 119 112) ?x1292321)))
 (let (($x1342632 (= (_ bv0 8) ?x1558576)))
 (let ((?x1558074 (ite $x1342632 (_ bv576460752303355728 64) ?x1558647)))
 (let ((?x1558633 ((_ extract 127 120) ?x1292321)))
 (let (($x1342624 (= (_ bv0 8) ?x1558633)))
 (let ((?x1558256 (ite $x1342624 (_ bv576460752303355727 64) ?x1558074)))
 (let ((?x1558509 ((_ extract 135 128) ?x1292321)))
 (let (($x1342621 (= (_ bv0 8) ?x1558509)))
 (let ((?x1558147 (ite $x1342621 (_ bv576460752303355726 64) ?x1558256)))
 (let ((?x1558511 ((_ extract 143 136) ?x1292321)))
 (let (($x1342613 (= (_ bv0 8) ?x1558511)))
 (let ((?x1558155 (ite $x1342613 (_ bv576460752303355725 64) ?x1558147)))
 (let ((?x1558232 ((_ extract 151 144) ?x1292321)))
 (let (($x1342580 (= (_ bv0 8) ?x1558232)))
 (let ((?x1558276 (ite $x1342580 (_ bv576460752303355724 64) ?x1558155)))
 (let ((?x1558522 ((_ extract 159 152) ?x1292321)))
 (let (($x1342542 (= (_ bv0 8) ?x1558522)))
 (let ((?x1558325 (ite $x1342542 (_ bv576460752303355723 64) ?x1558276)))
 (let ((?x1558237 ((_ extract 167 160) ?x1292321)))
 (let (($x1342529 (= (_ bv0 8) ?x1558237)))
 (let ((?x1558146 (ite $x1342529 (_ bv576460752303355722 64) ?x1558325)))
 (let ((?x1558364 ((_ extract 175 168) ?x1292321)))
 (let (($x1342526 (= (_ bv0 8) ?x1558364)))
 (let ((?x1558592 (ite $x1342526 (_ bv576460752303355721 64) ?x1558146)))
 (let ((?x1558165 ((_ extract 183 176) ?x1292321)))
 (let (($x1342482 (= (_ bv0 8) ?x1558165)))
 (let ((?x1558558 (ite $x1342482 (_ bv576460752303355720 64) ?x1558592)))
 (let ((?x1558465 ((_ extract 191 184) ?x1292321)))
 (let (($x1342413 (= (_ bv0 8) ?x1558465)))
 (let ((?x1558531 (ite $x1342413 (_ bv576460752303355719 64) ?x1558558)))
 (let ((?x1558644 ((_ extract 199 192) ?x1292321)))
 (let (($x1342396 (= (_ bv0 8) ?x1558644)))
 (let ((?x1558649 (ite $x1342396 (_ bv576460752303355718 64) ?x1558531)))
 (let ((?x1558326 ((_ extract 207 200) ?x1292321)))
 (let (($x1341844 (= (_ bv0 8) ?x1558326)))
 (let ((?x1558432 (ite $x1341844 (_ bv576460752303355717 64) ?x1558649)))
 (let ((?x1558359 ((_ extract 215 208) ?x1292321)))
 (let (($x1330254 (= (_ bv0 8) ?x1558359)))
 (let ((?x1558494 (ite $x1330254 (_ bv576460752303355716 64) ?x1558432)))
 (let ((?x1558257 ((_ extract 223 216) ?x1292321)))
 (let (($x1330125 (= (_ bv0 8) ?x1558257)))
 (let ((?x1558631 (ite $x1330125 (_ bv576460752303355715 64) ?x1558494)))
 (let ((?x1558339 ((_ extract 231 224) ?x1292321)))
 (let (($x1292403 (= (_ bv0 8) ?x1558339)))
 (let ((?x1558346 (ite $x1292403 (_ bv576460752303355714 64) ?x1558631)))
 (let ((?x1558354 ((_ extract 239 232) ?x1292321)))
 (let (($x1287335 (= (_ bv0 8) ?x1558354)))
 (let ((?x1558289 (ite $x1287335 (_ bv576460752303355713 64) ?x1558346)))
 (let ((?x1342364 ((_ extract 247 240) ?x1292321)))
 (let (($x1342663 (= (_ bv0 8) ?x1342364)))
 (let ((?x1558548 (ite $x1342663 (_ bv576460752303355712 64) ?x1558289)))
 (let ((?x1558174 (bvsub ?x1558548 (_ bv576460752303355712 64))))
 (= ?x1558174 strlen_9892_64)))))))))))))))))))))))))))))))))))))))))))))))))))))))))))))))))))))))))))))))))))))))))))))))))))))))))))))))))))))))))))))))))))))))))))))))))))))))))))))))))))))))))))))))))))))))))))))))))))))))))))))))))))))))))))))))))))))))))))))))))))))))))
(maximize mem_7fffffffffeefc8_390_64)
(maximize syscall_stub_newfstatat_187_64)
(minimize syscall_stub_readlink_158_64)
(maximize strlen_842_64)
(maximize strncmp_ret_84_32)
(maximize strlen_8047_64)
(minimize args_1_8)
(minimize mem_2c_5073_264)
(minimize mem_7fffffffffeefa8_273_64)
(minimize strlen_8047_64)
(minimize mem_7fffffffffeefc8_390_64)
(maximize access_3089_32)
(minimize syscall_stub_newfstatat_119_64)
(minimize mem_7fffffffffef740_6019_248)
(maximize strlen_9892_64)
(minimize strlen_85_64)
(maximize mem_7fffffffffef420_168_64)
(minimize strlen_83_64)
(minimize mem_7fffffffffeefa0_293_64)
(maximize mem_7fffffffffef058_391_64)
(maximize filesize_file_0_/proc/self/loginuid_88_64)
(minimize mem_7fffffffffef038_272_64)
(maximize args_1_8)
(minimize strncmp_ret_84_32)
(maximize mem_7fffffffffef740_6019_248)
(minimize mem_7fffffffffef058_391_64)
(minimize mem_7fffffffffef048_341_32)
(maximize syscall_stub_ioctl_94_32)
(maximize mem_7fffffffffef038_272_64)
(minimize mem_7fffffffffef030_294_64)
(minimize mem_7fffffffffef420_168_64)
(maximize access_2116_32)
(minimize strlen_5074_64)
(minimize access_3089_32)
(maximize strlen_85_64)
(maximize mem_7fffffffffeefa8_273_64)
(maximize mem_2c_5073_264)
(check-sat)
(get-objectives)
